20
587 233 220
65 51 50
113 78 28
120 35 32
71 53 20
94 70 64
64 33 32
71 35 21
85 59 49
108 62 53
116 56 25
75 69 35
114 85 53
55 35 20
89 72 66
92 62 47
103 99 42
66 55 32
93 62 39
86 64 50
75 71 68
thpack7_82